c FILE: i080-245

c SOURCE: From steinlib

c DESCRIPTION: Steinlib instance with 80 nodes and 632 edges.

p edge 80 632
e 1 2
e 1 6
e 1 8
e 1 13
e 1 15
e 1 21
e 1 29
e 1 31
e 1 33
e 1 39
e 1 58
e 1 60
e 1 65
e 1 66
e 1 79
e 2 10
e 2 17
e 2 26
e 2 38
e 2 45
e 2 46
e 2 51
e 2 55
e 2 57
e 2 58
e 2 66
e 2 68
e 2 70
e 2 71
e 2 76
e 2 80
e 3 7
e 3 9
e 3 15
e 3 16
e 3 23
e 3 27
e 3 28
e 3 40
e 3 46
e 3 47
e 3 49
e 3 58
e 3 77
e 4 5
e 4 8
e 4 12
e 4 15
e 4 20
e 4 24
e 4 27
e 4 28
e 4 35
e 4 40
e 4 42
e 4 43
e 4 61
e 4 63
e 4 74
e 4 77
e 5 7
e 5 17
e 5 28
e 5 30
e 5 32
e 5 33
e 5 34
e 5 35
e 5 37
e 5 39
e 5 43
e 5 49
e 5 54
e 5 59
e 5 65
e 5 67
e 5 70
e 6 12
e 6 17
e 6 21
e 6 24
e 6 37
e 6 38
e 6 49
e 6 53
e 6 57
e 6 58
e 6 60
e 7 13
e 7 14
e 7 19
e 7 20
e 7 21
e 7 23
e 7 27
e 7 28
e 7 40
e 7 41
e 7 42
e 7 45
e 7 69
e 7 75
e 7 78
e 8 10
e 8 20
e 8 22
e 8 23
e 8 28
e 8 30
e 8 31
e 8 35
e 8 36
e 8 38
e 8 43
e 8 44
e 8 46
e 8 54
e 8 72
e 8 75
e 8 79
e 9 29
e 9 33
e 9 36
e 9 44
e 9 48
e 9 55
e 9 61
e 9 64
e 9 75
e 9 78
e 10 19
e 10 22
e 10 25
e 10 27
e 10 36
e 10 41
e 10 43
e 10 45
e 10 47
e 10 48
e 10 50
e 10 58
e 10 60
e 10 64
e 10 77
e 11 12
e 11 15
e 11 17
e 11 20
e 11 21
e 11 29
e 11 30
e 11 31
e 11 33
e 11 34
e 11 41
e 11 42
e 11 43
e 11 51
e 11 55
e 11 56
e 11 59
e 11 60
e 11 63
e 11 64
e 11 66
e 11 77
e 11 79
e 12 13
e 12 16
e 12 28
e 12 34
e 12 45
e 12 50
e 12 51
e 12 53
e 12 61
e 12 63
e 12 64
e 12 68
e 13 18
e 13 21
e 13 28
e 13 33
e 13 37
e 13 39
e 13 41
e 13 48
e 13 60
e 13 66
e 13 71
e 13 74
e 14 15
e 14 17
e 14 21
e 14 27
e 14 29
e 14 30
e 14 35
e 14 44
e 14 48
e 14 57
e 14 59
e 14 63
e 14 69
e 14 80
e 15 16
e 15 18
e 15 19
e 15 22
e 15 23
e 15 29
e 15 34
e 15 41
e 15 46
e 15 47
e 15 49
e 15 62
e 15 69
e 15 73
e 15 76
e 16 17
e 16 21
e 16 23
e 16 24
e 16 25
e 16 27
e 16 30
e 16 31
e 16 33
e 16 38
e 16 40
e 16 43
e 16 44
e 16 49
e 16 53
e 16 57
e 16 59
e 16 62
e 16 71
e 17 21
e 17 26
e 17 27
e 17 28
e 17 29
e 17 35
e 17 41
e 17 48
e 17 55
e 17 60
e 17 64
e 17 68
e 17 69
e 17 72
e 18 26
e 18 29
e 18 31
e 18 37
e 18 41
e 18 54
e 18 56
e 18 57
e 18 76
e 18 78
e 18 79
e 18 80
e 19 25
e 19 28
e 19 30
e 19 31
e 19 36
e 19 39
e 19 41
e 19 49
e 19 50
e 19 52
e 19 58
e 19 71
e 20 24
e 20 26
e 20 27
e 20 30
e 20 41
e 20 46
e 20 47
e 20 49
e 20 57
e 20 59
e 20 61
e 20 68
e 20 70
e 20 71
e 20 80
e 21 26
e 21 30
e 21 34
e 21 49
e 21 52
e 21 58
e 21 59
e 21 60
e 21 65
e 22 28
e 22 34
e 22 42
e 22 46
e 22 48
e 22 50
e 22 53
e 22 54
e 22 63
e 22 69
e 22 72
e 22 78
e 23 27
e 23 36
e 23 37
e 23 39
e 23 48
e 23 49
e 23 52
e 23 74
e 24 26
e 24 29
e 24 31
e 24 32
e 24 35
e 24 40
e 24 52
e 24 53
e 24 63
e 24 64
e 24 69
e 25 35
e 25 48
e 25 53
e 25 59
e 25 64
e 25 69
e 25 79
e 26 27
e 26 29
e 26 30
e 26 35
e 26 36
e 26 55
e 26 64
e 26 70
e 26 73
e 26 76
e 27 28
e 27 39
e 27 40
e 27 45
e 27 52
e 27 58
e 27 64
e 27 69
e 27 70
e 27 75
e 28 35
e 28 37
e 28 40
e 28 41
e 28 43
e 28 57
e 28 63
e 28 67
e 28 68
e 28 71
e 28 77
e 29 30
e 29 41
e 29 46
e 29 47
e 29 63
e 29 71
e 30 32
e 30 33
e 30 36
e 30 39
e 30 40
e 30 44
e 30 46
e 30 51
e 30 54
e 30 57
e 30 66
e 30 67
e 30 72
e 30 73
e 30 79
e 30 80
e 31 34
e 31 35
e 31 37
e 31 38
e 31 45
e 31 55
e 31 59
e 31 67
e 31 68
e 31 69
e 31 70
e 31 77
e 31 78
e 32 36
e 32 44
e 32 49
e 32 50
e 32 54
e 32 56
e 32 62
e 32 67
e 32 68
e 32 72
e 33 35
e 33 42
e 33 52
e 33 53
e 33 55
e 33 63
e 33 65
e 33 67
e 33 68
e 33 70
e 33 71
e 33 77
e 34 35
e 34 39
e 34 40
e 34 43
e 34 47
e 34 50
e 34 57
e 34 61
e 34 77
e 34 78
e 35 38
e 35 43
e 35 48
e 35 58
e 35 59
e 35 65
e 35 72
e 36 37
e 36 40
e 36 42
e 36 47
e 36 49
e 36 52
e 36 55
e 36 59
e 36 62
e 36 70
e 36 73
e 36 75
e 36 77
e 36 78
e 37 39
e 37 44
e 37 49
e 37 50
e 37 55
e 37 57
e 37 59
e 37 71
e 37 74
e 37 78
e 37 80
e 38 55
e 38 76
e 39 50
e 39 52
e 39 64
e 39 72
e 40 45
e 40 48
e 40 51
e 40 53
e 40 54
e 40 63
e 40 64
e 40 71
e 40 78
e 40 79
e 41 47
e 41 48
e 41 50
e 41 55
e 41 59
e 41 77
e 42 46
e 42 57
e 42 60
e 43 76
e 44 45
e 44 53
e 44 61
e 44 74
e 44 80
e 45 50
e 45 53
e 45 57
e 45 66
e 45 67
e 45 68
e 46 50
e 46 59
e 46 61
e 46 66
e 46 69
e 46 75
e 46 78
e 46 80
e 47 49
e 47 52
e 47 62
e 47 71
e 47 78
e 47 79
e 48 54
e 48 59
e 48 61
e 48 69
e 48 70
e 48 72
e 48 73
e 49 51
e 49 52
e 49 58
e 49 61
e 49 64
e 50 52
e 50 57
e 50 68
e 50 75
e 50 76
e 50 80
e 51 52
e 51 53
e 51 55
e 51 56
e 51 57
e 51 59
e 51 66
e 51 68
e 51 69
e 51 71
e 51 77
e 52 65
e 52 67
e 52 73
e 53 55
e 53 57
e 53 58
e 53 61
e 53 62
e 53 64
e 53 70
e 53 73
e 54 55
e 54 63
e 54 64
e 54 66
e 54 78
e 54 80
e 55 57
e 55 64
e 55 69
e 55 72
e 55 74
e 55 77
e 56 60
e 56 63
e 56 72
e 56 77
e 56 78
e 57 61
e 57 68
e 57 71
e 57 74
e 57 75
e 57 77
e 57 79
e 58 63
e 58 66
e 58 74
e 58 80
e 59 60
e 59 62
e 59 74
e 59 75
e 59 79
e 60 73
e 60 78
e 60 79
e 61 66
e 61 75
e 62 63
e 62 68
e 62 69
e 62 71
e 62 74
e 63 69
e 64 67
e 64 68
e 64 72
e 65 66
e 65 68
e 65 69
e 65 76
e 65 79
e 66 67
e 66 68
e 66 73
e 66 75
e 66 79
e 67 70
e 67 71
e 69 72
e 69 73
e 69 78
e 69 80
e 72 74
e 72 75
e 72 76
e 74 76
e 74 78
e 74 79
e 75 77
e 76 78
